set Helyek;
param tav{h1 in Helyek, h2 in Helyek}; #km
param ido{h1 in Helyek, h2 in Helyk}; #perc



param nJarat;
set Jaratok := 1 .. nJarat;
param honnan{Jaratok} symbolic, in Helyek;
param hova{Jaratok} symbolic, in Helyek;
param mikortol{Jaratok}; #perc
param meddig{Jaratok}; #perc


param nBusz;
set Buszok := 1..nBusz;


#cel a koztes km-ek minimalizalasa





